NAME: tsp20_7
COMMENT: 20-tsp problem (Padberg/Rinaldi)
TYPE: TSP
DIMENSION: 20
EDGE_WEIGHT_TYPE : EUC_2D
NODE_COORD_SECTION
1 37 10
2 1 33
3 12 14
4 30 11
5 15 32
6 39 10
7 34 18
8 35 15
9 8 25
10 29 17
11 4 10
12 36 25
13 18 12
14 24 7
15 16 31
16 38 8
17 39 22
18 39 12
19 28 24
20 3 39
